clingo version 5.4.0
Reading from merger/Adrian/merge.lp ...
Solving...
Answer: 1
occurs(object(robot,1),action(move,(-1,0)),1). occurs(object(robot,1),action(move,(-1,0)),2). occurs(object(robot,1),action(move,(-1,0)),3). occurs(object(robot,1),action(move,(-1,0)),4). occurs(object(robot,2),action(move,(-1,0)),1). occurs(object(robot,2),action(move,(-1,0)),2). occurs(object(robot,2),action(move,(-1,0)),3). occurs(object(robot,2),action(move,(-1,0)),4). occurs(object(robot,2),action(move,(1,0)),6). occurs(object(robot,1),action(move,(1,0)),6). occurs(object(robot,2),action(move,(1,0)),5). occurs(object(robot,1),action(move,(1,0)),5). occurs(object(robot,1),action(move,(1,0)),9). occurs(object(robot,1),action(move,(1,0)),8). occurs(object(robot,1),action(move,(1,0)),7). occurs(object(robot,2),action(move,(1,0)),7). occurs(object(robot,1),action(move,(-1,0)),14). occurs(object(robot,1),action(move,(-1,0)),13). occurs(object(robot,1),action(move,(-1,0)),12). occurs(object(robot,1),action(move,(-1,0)),11). occurs(object(robot,1),action(move,(-1,0)),10). occurs(object(robot,2),action(move,(0,1)),9). occurs(object(robot,2),action(move,(-1,0)),14). occurs(object(robot,2),action(move,(-1,0)),13). occurs(object(robot,2),action(move,(-1,0)),12). occurs(object(robot,2),action(move,(-1,0)),11). occurs(object(robot,2),action(move,(-1,0)),10). occurs(object(robot,2),action(move,(0,-1)),8).
Optimization: 9
OPTIMUM FOUND

Models       : 1
  Optimum    : yes
Optimization : 9
Calls        : 1
Time         : 209.512s (Solving: 208.42s 1st Model: 41.68s Unsat: 166.74s)
CPU Time     : 209.250s
